c Output_time 26.03.2020 18:13:11_+0100 1585242791124779021
c ** Program information **
c program_name                          "QBRG_debug"
c version                               "0.3.20"
c date                                  "25.3.2020"
c gid_id                                "673970833836058123f633335630c185360d632e"
c author                                "Oliver Kullmann"
c url                                   "https://github.com/OKullmann/oklibrary/blob/master/Satisfiability/Transformers/Generators/Random/QBRG.cpp"
c ** Machine information **
c machine_name                          "chyna-Lenovo-G50-70"
c bogomips                              3791.08
c ** Compilation information **
c compiler_version                      "g++ 7.5.0"
c compilation_date                      "Mar_26_2020 11:16:30"
c compilation_options                   "--std=c++17 -pedantic -fmax-errors=5 -Wall -Wextra -g -D_GLIBCXX_DEBUG"
c NDEBUG                                0
c OPTIMIZE                              0
c ** Parameters **
c command-line                          "./QBRG_debug" "e40 a40 40" "205*1,1|2-2,1|3-3,1" "" "1,t" ""
c output                                "QuBlRaGe_120_205_1585242791124620057.qdimacs"
c options                               "filtered,renamed"
c num_quantifier_blocks                 3
c  quantifier_blocks                    1:e1-40 2:a41-80 3:e81-120
c num_clause-blocks                     1
c  clause-blocks                        205 * {1-40,1,1/2} | {41-80,1,1/2} | {81-120,1,1/2}
c num_e-seeds                           30+2=32
c  e-seeds                              1 0 1 0 4 120 2 40 1 40 0 40 1 205 3 1 1 1 1 2 2 2 1 1 2 3 3 1 1 2 1 1585242791124619574
p cnf 120 205
e 1 2 3 4 5 6 7 8 9 10 11 12 13 14 15 16 17 18 19 20 21 22 23 24 25 26 27 28 29 30 31 32 33 34 35 36 37 38 39 40 0
a 41 42 43 44 45 46 47 48 49 50 51 52 53 54 55 56 57 58 59 60 61 62 63 64 65 66 67 68 69 70 71 72 73 74 75 76 77 78 79 80 0
e 81 82 83 84 85 86 87 88 89 90 91 92 93 94 95 96 97 98 99 100 101 102 103 104 105 106 107 108 109 110 111 112 113 114 115 116 117 118 119 120 0
1 50 -81 0
15 -62 81 0
-9 65 81 0
-37 69 81 0
8 -64 -82 0
10 68 -82 0
34 -69 -82 0
-35 -50 82 0
-36 56 82 0
-22 71 82 0
-27 71 82 0
-36 73 82 0
24 60 -83 0
-5 -64 -83 0
20 -78 83 0
11 -46 -84 0
-5 -73 -84 0
11 -57 84 0
21 44 -85 0
18 48 -85 0
-38 56 -85 0
5 -63 -85 0
-33 -73 -85 0
-5 45 85 0
1 -41 -86 0
-32 65 -86 0
-24 68 -86 0
-11 -70 -86 0
5 80 -86 0
24 -43 86 0
11 51 86 0
-6 57 86 0
-13 -66 86 0
-35 60 -87 0
-4 -64 -87 0
-13 41 87 0
25 43 87 0
21 49 -88 0
-5 -70 -88 0
27 59 88 0
40 80 88 0
-35 46 -89 0
-32 49 -89 0
-2 64 -89 0
24 -80 -89 0
28 -41 89 0
26 -49 89 0
-17 -48 -90 0
5 -54 -90 0
21 62 -90 0
11 -70 -90 0
-15 57 -91 0
-13 -72 -91 0
-26 72 -91 0
30 45 -92 0
-3 48 -92 0
-15 -62 92 0
14 75 92 0
9 45 -93 0
24 58 -93 0
-12 -59 -93 0
6 -66 -93 0
-9 -71 -93 0
3 -41 93 0
-31 -42 93 0
6 42 -94 0
-6 -64 -94 0
23 50 94 0
-26 56 94 0
-16 61 -95 0
-17 44 95 0
14 58 95 0
39 76 95 0
2 -74 -96 0
-35 77 -96 0
14 44 96 0
9 -78 -97 0
-1 -68 97 0
-28 -70 97 0
26 -80 -98 0
-15 -57 98 0
9 -71 98 0
-1 -47 -99 0
-27 -53 -99 0
40 62 -99 0
-23 -49 99 0
37 -59 99 0
-10 -41 -100 0
32 -53 -100 0
-38 -62 -100 0
40 62 -100 0
-17 -42 100 0
-4 46 100 0
35 -67 100 0
3 67 100 0
-14 77 100 0
-4 73 -101 0
2 61 101 0
20 -60 -102 0
-14 60 -102 0
-23 -72 -102 0
33 79 -102 0
19 46 102 0
28 67 102 0
-12 -74 102 0
-7 -78 102 0
-30 -45 -103 0
-12 -55 -103 0
15 79 -103 0
-11 44 103 0
-34 46 103 0
-1 -68 103 0
-26 74 103 0
-10 -78 103 0
-25 -79 103 0
-4 -48 -104 0
-22 55 -104 0
-29 -73 -104 0
39 -43 104 0
-18 -72 104 0
-8 -77 104 0
-17 44 -105 0
-33 -65 -105 0
15 -72 -105 0
11 53 105 0
29 -63 105 0
40 -75 105 0
-38 65 -106 0
31 72 -106 0
-1 47 106 0
37 -67 106 0
-16 41 -107 0
-25 59 -107 0
-8 43 107 0
39 -45 107 0
-5 52 -108 0
-36 -75 -108 0
-4 43 108 0
11 -60 108 0
-7 -50 -109 0
-37 -52 -109 0
4 55 -109 0
-3 -56 -109 0
40 56 -109 0
-19 73 -109 0
-17 -74 -109 0
-22 47 109 0
-34 -61 109 0
-7 -46 110 0
39 -62 110 0
-39 -41 -111 0
2 45 -111 0
-13 46 -111 0
-27 46 -111 0
-24 -56 -111 0
18 61 -111 0
18 65 111 0
17 80 111 0
23 -51 -112 0
6 68 -112 0
14 69 -112 0
32 70 112 0
-1 74 112 0
17 74 112 0
-33 47 -113 0
40 70 -113 0
22 -79 -113 0
-27 43 113 0
25 47 113 0
-11 -43 -114 0
19 50 -114 0
21 57 114 0
-3 73 114 0
24 74 114 0
18 55 -115 0
-1 74 -115 0
26 -42 115 0
-34 51 115 0
-34 54 115 0
-16 63 -116 0
-19 -43 116 0
9 46 116 0
20 -41 -117 0
-5 -62 -117 0
21 -62 -117 0
23 -69 117 0
-5 50 -118 0
-4 62 -118 0
-39 -63 -118 0
-15 -76 -118 0
-11 43 118 0
-14 50 118 0
-40 58 118 0
20 69 -119 0
32 44 119 0
-8 -66 119 0
22 -61 -120 0
-2 -75 -120 0
19 43 120 0
2 -62 120 0
1 -65 120 0
21 -66 120 0
5 -69 120 0
13 69 120 0
-18 -72 120 0
